NAME: tsp_25
TYPE: TSP
DIMENSION: 25
EDGE_WEIGHT_TYPE: EUC_2D
NODE_COORD_SECTION
1 13 260
2 23 206
3 53 250
4 56 335
5 43 176
6 27 151
7 16 239
8 22 40
9 25 16
10 81 286
11 23 91
12 80 246
13 8 320
14 75 124
15 23 51
16 12 336
17 81 286
18 51 233
19 6 274
20 54 303
21 28 336
22 80 93
23 31 32
24 17 327
25 11 263
EOF
